solution status: optimal solution found
objective value:                     107002.552336725
d11(0,0)                                            1 	(obj:0)
d11(2,3)                                            1 	(obj:0)
d11(2,4)                                            1 	(obj:0)
d11(2,5)                                            1 	(obj:0)
d11(2,6)                                            1 	(obj:0)
d11(3,9)                            0.999999999999999 	(obj:0)
d11(3,11)                                           1 	(obj:0)
d11(3,13)                                           1 	(obj:0)
d12(1,2)                                            1 	(obj:0)
d12(3,8)                                            1 	(obj:0)
d12(3,10)                                           1 	(obj:0)
d12(3,12)                                           1 	(obj:0)
d12(3,14)                                           1 	(obj:0)
d21(2,3)                                            1 	(obj:0)
d21(3,7)                                            1 	(obj:0)
d21(3,8)                                            1 	(obj:0)
d21(3,11)                                           1 	(obj:0)
y2(1,2)                              1385.48851144895 	(obj:0)
y2(3,8)                              1385.48851144895 	(obj:0)
y2(3,10)                             1385.48851144895 	(obj:0)
y2(3,12)                             1385.48851144895 	(obj:0)
y2(3,14)                             1385.48851144895 	(obj:0)
STE(1,1)                                         7245 	(obj:0)
STE(0,0)                                         7875 	(obj:0)
STE(1,2)                              8561.2140858765 	(obj:0)
STE(2,3)                             3696.75010111058 	(obj:0)
STE(2,4)                              5354.9999999994 	(obj:0)
STE(2,5)                             5012.96418698708 	(obj:0)
STE(2,6)                              6671.2140858759 	(obj:0)
STE(3,7)                             3066.75010111058 	(obj:0)
STE(3,8)                             4382.96418698709 	(obj:0)
STE(3,9)                                         4725 	(obj:0)
STE(3,10)                            6041.21408587591 	(obj:0)
STE(3,11)                            4382.96418698708 	(obj:0)
STE(3,12)                            5699.17827286359 	(obj:0)
STE(3,13)                             6041.2140858759 	(obj:0)
STE(3,14)                            7357.42817175241 	(obj:0)
AVE(2)                               3315.65537776224 	(obj:0)
WB(3)                                3315.65799770399 	(obj:0)
y1(2,3)                              2626.42490900048 	(obj:0)
y1(2,4)                              1134.00000000054 	(obj:0)
y1(2,5)                              2626.42490900048 	(obj:0)
y1(2,6)                              1134.00000000054 	(obj:0)
AVE(3)                               3315.65799770399 	(obj:0)
WB(1)                                3248.33172520918 	(obj:0)
WG(2)                                3315.65537776224 	(obj:10)
BG(1)                                2673.40993877527 	(obj:10)
BG(2)                                2037.77997836073 	(obj:10)
BG(3)                                2673.40993877551 	(obj:10)
AVE(1)                               3248.33172520918 	(obj:0)
